###############################################################################
# MD simulation for carbon chain
###############################################################################

###############################################################################
# VARIABLES
###############################################################################
clear
# Configuration files
variable cfgFile         string "carbon-chain.data"
# Timesteps
variable numSteps        equal  5
variable dt              equal  0.0005
# NN
variable nnpCutoff       equal  8.01
variable nnpDir          string "nnp-data"
# Masses
variable mass_H          equal  1.00794
variable mass_O          equal  15.9994

###############################################################################
# GENERAL SETUP
###############################################################################
units metal
boundary s s s
atom_style atomic
read_data ${cfgFile}
mass 1 ${mass_H}
mass 2 ${mass_O}
timestep ${dt}
thermo 1

###############################################################################
# NN
###############################################################################
pair_style nnp/external "H C" dir ${nnpDir} command "/Users/emirkocer/CLionProjects/JonasRuNNer/build/RuNNer-gaussian.x" cflength 1.0 cfenergy 1.0
#pair_style nnp/external "H C" dir ${nnpDir} command "nnp-predict 0" cflength 1.0 cfenergy 1.0
pair_coeff * * ${nnpCutoff}

###############################################################################
# INTEGRATOR
###############################################################################
fix INT all nve
#dump 1 all atom 1 traj.dump

###############################################################################
# SIMULATION
###############################################################################
run ${numSteps}
