###############################################################################
# MD simulation for carbon chain
###############################################################################

###############################################################################
# VARIABLES
###############################################################################
clear
# Configuration files
variable cfgFile         string "water.data"
# Timesteps
variable numSteps        equal  0
variable dt              equal  0.0005
# NN
variable nnpCutoff       equal  8.01
variable nnpDir          string "nnp-data"
# Masses
variable mass_H          equal  1.00794
variable mass_O          equal  15.9994

# Conversions
variable c1				 equal 	1.8897261328
variable c2				 equal  0.0367493254
#variable c1				 equal  1.0
#variable c2				 equal  1.0

###############################################################################
# GENERAL SETUP
###############################################################################
units metal
boundary p p p
atom_style charge
atom_modify map yes
read_data ${cfgFile}
mass 1 ${mass_H}
mass 2 ${mass_O}
timestep ${dt}
thermo 1

neighbor 0.0 bin

###############################################################################
# NN
###############################################################################
pair_style nnp dir ${nnpDir} showew no showewsum 10 resetew no maxew 1000000 cflength ${c1} cfenergy ${c2} emap "1:H,2:O"
pair_coeff * * ${nnpCutoff}
fix 1 all nnp 1 1.0e-4 1.0e-4 1.0e-2 20 nnp 


###############################################################################
# INTEGRATOR
###############################################################################
fix INT all nve
#dump 1 all atom 1 traj.dump

###############################################################################
# SIMULATION
###############################################################################
run ${numSteps}
